70
1 0 7
3 0 16
3 2 4
4 0 16
4 3 2
5 2 11
5 3 2
5 4 3
6 0 18
6 1 11
6 2 10
6 4 18
7 0 17
7 1 1
7 2 18
7 4 2
7 5 19
7 6 13
8 0 3
8 2 1
8 3 13
8 4 14
8 5 11
8 6 3
8 7 20
9 0 13
9 1 5
9 3 19
9 5 6
9 6 10
9 7 18
10 0 16
10 1 11
10 2 2
10 4 18
10 6 6
10 8 14
11 0 9
11 2 17
11 3 15
11 4 4
11 5 13
11 8 13
11 9 3
11 10 10
12 0 19
12 3 14
12 4 20
12 6 5
12 7 10
12 10 18
12 11 3
13 1 5
13 2 17
13 7 12
13 8 18
14 3 11
14 4 20
14 5 6
14 7 10
14 8 8
14 9 7
14 10 5
15 0 9
15 2 11
15 3 17
15 4 11
15 5 13
15 8 17
15 10 13
15 11 10
15 13 8
15 14 12
16 0 14
16 1 9
16 2 2
16 3 12
16 4 14
16 5 15
16 8 16
16 9 11
16 10 3
16 11 12
16 14 18
16 15 19
17 0 6
17 2 5
17 3 20
17 4 7
17 5 3
17 6 11
17 7 2
17 8 6
17 12 16
17 16 7
18 0 9
18 1 10
18 2 15
18 3 18
18 4 20
18 5 19
18 7 16
18 8 8
18 10 13
18 11 5
18 12 10
18 13 8
18 14 10
18 16 9
18 17 9
19 0 4
19 1 5
19 2 4
19 5 10
19 6 17
19 7 17
19 8 4
19 9 11
19 10 1
19 11 14
19 12 2
19 13 18
19 15 1
19 16 19
20 1 12
20 2 5
20 3 6
20 6 16
20 8 15
20 9 17
20 10 9
20 11 15
20 13 15
20 14 11
20 15 10
20 16 5
20 19 17
21 0 12
21 1 7
21 2 3
21 4 19
21 5 2
21 6 20
21 7 5
21 8 4
21 9 7
21 11 11
21 13 7
21 14 8
21 15 1
21 16 4
21 17 10
21 18 4
21 19 5
21 20 16
22 1 9
22 3 11
22 4 8
22 5 12
22 6 15
22 7 19
22 10 18
22 11 5
22 12 5
22 13 12
22 15 13
22 18 7
23 2 12
23 3 20
23 5 1
23 7 19
23 8 3
23 9 20
23 12 15
23 17 2
23 18 6
23 19 9
23 20 16
23 21 15
23 22 11
24 0 7
24 2 11
24 3 14
24 5 20
24 6 1
24 9 8
24 11 15
24 13 7
24 15 16
24 16 14
24 17 12
24 18 6
24 19 14
24 20 16
24 21 7
24 22 8
25 0 12
25 2 9
25 3 1
25 5 17
25 12 3
25 13 12
25 14 5
25 15 3
25 16 4
25 18 12
25 20 20
25 21 20
25 23 20
25 24 8
26 1 1
26 3 9
26 4 17
26 7 3
26 8 16
26 9 16
26 12 6
26 13 2
26 15 5
26 22 4
26 24 8
27 0 12
27 4 18
27 6 17
27 7 11
27 8 3
27 9 1
27 10 9
27 11 10
27 12 19
27 13 14
27 14 2
27 15 6
27 16 7
27 18 10
27 19 6
27 20 13
27 21 2
27 22 14
28 3 8
28 5 1
28 6 8
28 10 17
28 11 18
28 12 3
28 13 11
28 16 9
28 18 17
28 22 18
28 24 12
28 25 16
29 0 4
29 1 8
29 2 11
29 4 16
29 5 20
29 6 12
29 7 17
29 9 15
29 11 18
29 14 17
29 15 15
29 16 20
29 22 15
29 23 14
29 25 4
29 26 6
29 27 19
30 0 19
30 1 19
30 2 10
30 6 13
30 7 6
30 10 16
30 11 19
30 15 3
30 16 19
30 18 12
30 20 15
30 21 15
30 22 20
30 24 14
30 27 3
30 28 9
31 0 15
31 4 1
31 5 15
31 7 14
31 8 12
31 9 11
31 10 2
31 11 16
31 13 2
31 16 20
31 17 17
31 19 13
31 20 18
31 21 9
31 22 10
31 23 16
31 24 6
31 25 8
31 27 6
31 30 14
32 1 2
32 2 14
32 3 11
32 4 7
32 5 5
32 6 16
32 7 19
32 8 10
32 9 15
32 11 16
32 12 6
32 13 17
32 15 1
32 16 19
32 18 5
32 19 1
32 21 10
32 22 2
32 23 12
32 26 12
32 28 13
32 30 13
32 31 2
33 0 11
33 1 13
33 2 1
33 4 10
33 5 17
33 6 19
33 8 13
33 9 3
33 10 5
33 11 14
33 13 7
33 16 9
33 17 9
33 20 20
33 21 2
33 23 16
33 24 19
33 25 16
33 27 3
33 29 6
33 31 17
33 32 12
34 1 12
34 2 12
34 3 13
34 5 9
34 6 8
34 11 17
34 12 19
34 15 9
34 16 7
34 22 9
34 24 19
34 26 16
34 27 15
34 29 9
34 32 9
34 33 1
35 0 15
35 2 20
35 3 2
35 4 5
35 5 7
35 6 7
35 7 8
35 8 14
35 10 3
35 12 18
35 13 16
35 14 6
35 16 8
35 17 6
35 18 6
35 19 12
35 20 12
35 21 16
35 23 20
35 24 17
35 25 10
35 28 19
35 29 5
35 30 2
35 33 13
35 34 19
36 1 13
36 2 13
36 4 17
36 5 5
36 6 16
36 7 8
36 12 2
36 14 16
36 15 2
36 16 12
36 20 8
36 22 14
36 23 6
36 24 2
36 25 5
36 26 20
36 27 4
36 28 1
36 29 14
36 30 16
36 31 13
36 32 15
36 33 9
37 0 10
37 1 17
37 2 11
37 3 10
37 4 2
37 5 8
37 7 8
37 8 15
37 9 6
37 10 17
37 11 19
37 15 9
37 16 17
37 18 8
37 21 11
37 22 11
37 23 16
37 24 1
37 33 9
37 35 10
38 0 6
38 1 9
38 3 15
38 6 15
38 7 11
38 9 16
38 12 18
38 13 13
38 15 6
38 18 3
38 19 10
38 21 17
38 22 14
38 23 14
38 24 14
38 26 16
38 27 1
38 29 4
38 30 6
38 31 11
38 32 8
38 33 19
38 35 20
38 36 16
38 37 10
39 0 17
39 1 12
39 3 18
39 4 6
39 8 8
39 10 7
39 12 5
39 13 10
39 14 19
39 15 7
39 21 1
39 24 6
39 25 7
39 26 15
39 28 7
39 30 17
39 31 3
39 32 6
39 35 12
40 0 3
40 1 6
40 2 3
40 3 13
40 4 14
40 5 16
40 8 2
40 11 19
40 13 16
40 17 4
40 18 13
40 20 13
40 21 4
40 24 4
40 31 17
40 34 15
40 35 4
40 36 4
40 37 15
40 38 17
41 1 13
41 3 16
41 5 11
41 6 9
41 7 1
41 8 6
41 10 7
41 11 11
41 12 2
41 13 14
41 14 19
41 15 13
41 16 20
41 18 9
41 22 17
41 23 10
41 24 1
41 26 13
41 28 17
41 30 17
41 31 1
41 32 5
41 33 10
41 36 15
41 37 9
41 39 3
41 40 11
42 2 5
42 5 3
42 7 8
42 8 15
42 9 15
42 10 11
42 11 2
42 12 19
42 15 13
42 16 18
42 17 13
42 18 13
42 20 1
42 21 1
42 23 1
42 24 1
42 27 16
42 28 1
42 29 19
42 30 2
42 33 13
42 34 4
42 35 13
42 36 8
42 38 18
42 41 3
43 0 15
43 2 14
43 5 15
43 6 2
43 7 18
43 11 7
43 12 9
43 13 3
43 14 12
43 15 1
43 17 13
43 19 20
43 22 3
43 23 18
43 25 7
43 27 8
43 29 2
43 30 15
43 31 13
43 32 11
43 34 16
43 39 5
43 41 4
43 42 3
44 0 14
44 1 7
44 2 7
44 4 13
44 5 14
44 11 2
44 12 6
44 13 15
44 14 18
44 16 19
44 17 14
44 18 17
44 20 5
44 26 9
44 27 19
44 28 17
44 31 3
44 32 2
44 33 17
44 35 3
44 36 14
44 38 5
44 41 4
44 43 19
45 1 11
45 5 11
45 6 15
45 7 11
45 8 3
45 12 16
45 16 17
45 17 9
45 18 19
45 19 12
45 20 18
45 22 8
45 23 8
45 26 6
45 27 16
45 28 16
45 30 20
45 32 16
45 33 14
45 35 18
45 37 13
45 38 1
45 40 16
45 41 17
45 43 6
45 44 4
46 0 2
46 1 7
46 3 16
46 4 12
46 5 20
46 6 5
46 7 1
46 8 13
46 10 8
46 12 1
46 13 17
46 14 16
46 17 8
46 18 15
46 19 20
46 20 4
46 23 1
46 24 19
46 26 14
46 29 14
46 31 18
46 32 7
46 33 12
46 39 3
46 41 9
46 42 7
46 43 12
46 44 17
46 45 3
47 1 11
47 3 14
47 4 7
47 6 1
47 9 7
47 12 3
47 13 19
47 14 2
47 18 5
47 19 9
47 21 6
47 23 11
47 25 9
47 26 13
47 28 11
47 31 9
47 32 17
47 35 7
47 36 12
47 38 17
47 39 12
47 41 4
47 42 14
47 44 10
47 45 12
48 0 9
48 1 18
48 2 15
48 3 1
48 4 3
48 5 17
48 9 3
48 10 7
48 12 4
48 13 19
48 14 12
48 15 8
48 16 17
48 17 5
48 19 10
48 21 7
48 23 8
48 24 11
48 25 14
48 26 11
48 27 12
48 28 1
48 30 10
48 31 1
48 32 5
48 33 9
48 34 5
48 36 11
48 38 3
48 40 12
48 41 5
48 44 3
48 46 12
48 47 18
49 0 8
49 1 18
49 5 6
49 6 14
49 7 20
49 8 8
49 9 6
49 10 13
49 11 5
49 12 5
49 13 8
49 16 15
49 17 5
49 18 1
49 20 3
49 27 16
49 28 6
49 29 18
49 31 14
49 32 1
49 36 10
49 37 13
49 39 11
49 41 13
49 42 19
49 43 14
49 45 2
49 46 15
50 0 3
50 1 4
50 2 6
50 3 14
50 4 20
50 6 20
50 7 12
50 8 8
50 10 19
50 11 12
50 12 7
50 13 2
50 15 7
50 17 8
50 18 3
50 19 14
50 21 6
50 22 1
50 24 14
50 25 6
50 27 19
50 28 9
50 30 5
50 31 4
50 32 15
50 34 5
50 38 19
50 39 17
50 40 10
50 41 16
50 42 19
50 43 14
50 45 8
50 49 20
51 0 7
51 1 19
51 2 9
51 4 16
51 6 9
51 8 5
51 9 7
51 10 12
51 11 6
51 12 20
51 18 17
51 20 14
51 22 14
51 24 1
51 28 3
51 30 3
51 32 19
51 34 3
51 36 15
51 40 5
51 44 18
51 45 17
51 46 19
51 47 11
51 48 20
51 49 1
51 50 15
52 0 1
52 1 6
52 3 13
52 6 4
52 7 6
52 9 12
52 11 2
52 12 12
52 13 19
52 14 16
52 16 14
52 17 18
52 18 12
52 21 19
52 22 20
52 24 6
52 26 12
52 31 14
52 32 8
52 33 15
52 34 20
52 36 8
52 38 13
52 40 11
52 41 9
52 42 4
52 43 3
52 44 11
52 45 6
52 46 9
52 47 5
52 48 4
52 49 16
52 51 3
53 0 5
53 1 14
53 4 11
53 8 4
53 9 20
53 10 9
53 11 1
53 12 19
53 15 15
53 16 11
53 17 19
53 18 13
53 20 6
53 21 13
53 23 8
53 24 1
53 25 13
53 27 19
53 29 8
53 30 13
53 31 14
53 35 12
53 36 3
53 37 3
53 40 4
53 43 1
53 44 1
53 46 4
53 47 7
53 49 1
53 50 10
53 51 7
54 2 13
54 3 12
54 4 19
54 6 17
54 11 3
54 12 5
54 13 4
54 15 13
54 16 19
54 18 4
54 20 18
54 21 19
54 23 19
54 24 5
54 25 3
54 26 10
54 27 14
54 28 9
54 29 13
54 30 10
54 33 4
54 34 17
54 36 2
54 38 18
54 39 5
54 40 8
54 42 14
54 45 12
54 47 12
54 49 20
55 2 18
55 4 3
55 5 5
55 7 1
55 8 7
55 9 15
55 10 20
55 12 4
55 13 10
55 17 3
55 18 13
55 19 10
55 22 13
55 23 9
55 24 20
55 25 7
55 26 17
55 27 1
55 30 10
55 31 3
55 32 11
55 33 19
55 35 11
55 37 10
55 39 13
55 40 9
55 42 3
55 44 13
55 45 5
55 47 14
55 48 18
55 49 19
55 51 13
55 52 14
56 0 15
56 2 7
56 3 10
56 4 7
56 5 10
56 9 8
56 10 2
56 11 20
56 12 3
56 14 16
56 16 17
56 17 18
56 18 6
56 19 5
56 20 4
56 23 16
56 24 6
56 27 10
56 28 11
56 31 7
56 32 17
56 33 20
56 36 4
56 38 9
56 40 17
56 41 14
56 42 6
56 43 5
56 45 5
56 47 13
56 48 9
56 49 1
56 53 20
56 55 1
57 0 10
57 3 2
57 4 7
57 6 4
57 7 20
57 8 10
57 10 19
57 11 2
57 12 6
57 13 17
57 16 11
57 18 12
57 20 8
57 21 11
57 22 2
57 23 3
57 24 15
57 25 6
57 26 6
57 28 10
57 30 17
57 31 16
57 32 1
57 33 3
57 34 11
57 36 18
57 37 8
57 38 6
57 40 17
57 44 4
57 45 11
57 46 9
57 50 18
57 52 11
57 56 4
58 0 18
58 1 16
58 2 16
58 3 5
58 4 16
58 6 4
58 9 11
58 10 20
58 12 12
58 13 12
58 15 6
58 16 6
58 17 1
58 18 18
58 19 1
58 21 15
58 22 2
58 23 14
58 25 18
58 28 4
58 30 5
58 32 10
58 33 10
58 34 15
58 36 3
58 41 2
58 44 17
58 47 19
58 51 20
58 53 20
58 54 20
58 57 19
59 0 11
59 1 12
59 2 17
59 3 10
59 6 12
59 7 9
59 8 12
59 9 10
59 11 18
59 12 15
59 15 4
59 16 18
59 17 3
59 18 6
59 20 9
59 21 14
59 23 18
59 26 14
59 28 10
59 30 7
59 32 6
59 34 8
59 36 16
59 37 7
59 38 8
59 39 19
59 40 15
59 41 14
59 46 18
59 48 10
59 50 15
59 51 11
59 53 3
59 54 4
59 55 15
60 1 13
60 3 6
60 5 8
60 6 16
60 11 4
60 14 2
60 18 11
60 21 6
60 22 9
60 23 1
60 24 16
60 25 20
60 28 13
60 29 7
60 30 11
60 32 13
60 34 15
60 35 4
60 36 19
60 37 17
60 39 19
60 42 9
60 43 12
60 44 12
60 45 11
60 46 11
60 48 1
60 49 11
60 50 8
60 52 7
60 54 11
60 59 5
61 0 7
61 2 7
61 3 13
61 4 7
61 5 15
61 6 17
61 8 16
61 11 17
61 16 2
61 17 10
61 19 15
61 20 2
61 22 4
61 23 20
61 24 9
61 27 16
61 28 8
61 31 18
61 32 16
61 34 13
61 37 10
61 38 17
61 41 10
61 42 2
61 44 10
61 46 6
61 48 16
61 49 18
61 53 5
61 57 10
61 58 8
61 59 10
61 60 9
62 0 2
62 3 16
62 4 10
62 8 18
62 9 8
62 13 19
62 14 16
62 15 18
62 17 10
62 19 11
62 21 16
62 22 19
62 24 3
62 25 6
62 27 17
62 28 7
62 29 20
62 31 6
62 32 19
62 33 11
62 34 5
62 35 7
62 37 19
62 38 8
62 39 12
62 40 6
62 43 7
62 44 18
62 47 6
62 53 20
62 54 6
62 55 13
62 56 1
62 57 14
62 61 15
63 1 8
63 5 3
63 6 6
63 8 10
63 9 8
63 12 6
63 16 4
63 18 8
63 19 19
63 20 11
63 22 14
63 23 20
63 25 2
63 26 10
63 27 20
63 29 13
63 30 11
63 31 20
63 32 13
63 34 9
63 37 9
63 39 18
63 43 12
63 46 17
63 47 17
63 48 9
63 49 5
63 50 16
63 51 1
63 52 10
63 55 10
63 56 1
63 59 4
63 61 19
64 0 18
64 4 15
64 5 20
64 7 19
64 8 14
64 9 3
64 10 10
64 11 17
64 13 6
64 15 6
64 18 15
64 21 6
64 22 4
64 23 20
64 24 6
64 26 9
64 27 7
64 28 11
64 33 13
64 34 14
64 36 1
64 37 5
64 38 3
64 41 16
64 42 8
64 43 16
64 44 1
64 45 9
64 46 10
64 49 14
64 51 14
64 52 14
64 53 7
64 55 9
64 56 15
64 58 17
64 61 19
65 0 16
65 4 14
65 5 10
65 6 12
65 7 4
65 8 18
65 9 12
65 12 1
65 13 12
65 15 20
65 16 3
65 18 15
65 19 7
65 21 19
65 25 18
65 27 19
65 28 9
65 29 13
65 31 20
65 34 1
65 35 13
65 36 18
65 37 5
65 40 11
65 41 16
65 42 13
65 44 12
65 46 10
65 47 4
65 48 19
65 49 5
65 51 9
65 53 7
65 54 17
65 55 2
65 56 19
65 57 9
65 60 14
65 61 8
65 62 4
65 64 12
66 1 4
66 2 4
66 7 20
66 9 17
66 10 16
66 11 15
66 12 6
66 13 20
66 14 7
66 15 7
66 16 19
66 17 3
66 18 4
66 19 17
66 21 9
66 23 15
66 24 13
66 25 5
66 27 19
66 30 1
66 33 18
66 34 10
66 36 20
66 37 14
66 38 1
66 39 17
66 41 6
66 44 16
66 45 5
66 46 17
66 48 2
66 52 19
66 56 1
66 57 10
66 64 7
66 65 13
67 0 4
67 1 14
67 4 20
67 5 3
67 6 12
67 8 8
67 10 9
67 11 3
67 13 3
67 16 9
67 21 14
67 23 14
67 24 11
67 26 15
67 28 17
67 30 17
67 32 9
67 34 12
67 37 2
67 40 19
67 42 11
67 43 5
67 44 17
67 45 7
67 47 16
67 48 4
67 52 12
67 54 11
67 57 11
67 58 11
67 59 13
67 60 10
67 61 2
67 62 5
68 0 12
68 3 9
68 7 11
68 8 13
68 9 18
68 10 6
68 11 13
68 12 17
68 14 19
68 16 13
68 17 2
68 20 1
68 21 6
68 22 10
68 23 10
68 24 11
68 25 20
68 27 11
68 28 2
68 29 16
68 31 14
68 32 19
68 33 8
68 34 8
68 35 13
68 37 9
68 38 4
68 40 15
68 41 3
68 42 1
68 43 5
68 44 18
68 45 3
68 46 1
68 47 13
68 49 11
68 50 2
68 53 16
68 54 1
68 55 18
68 56 13
68 57 3
68 59 15
68 61 9
68 62 2
68 64 6
68 67 1
69 0 16
69 1 9
69 2 16
69 4 16
69 5 16
69 6 14
69 7 7
69 8 18
69 9 17
69 11 17
69 12 15
69 13 8
69 16 13
69 17 10
69 21 16
69 24 1
69 25 8
69 27 13
69 30 20
69 33 20
69 34 16
69 36 10
69 37 8
69 38 19
69 40 7
69 42 5
69 46 8
69 48 2
69 49 5
69 50 5
69 51 15
69 52 19
69 55 7
69 56 18
69 57 10
69 58 19
69 59 4
69 60 9
69 62 3
69 64 5
69 65 15
69 66 7
69 67 16
69 68 15
